6843 2772
7457 2540
4689 245
1231 1353
8337 2324
4912 6019
6458 1469
2992 2783
4160 5389
7000 1379
5225 1713
2246 2206
6827 1143
7136 2765
7323 2103
4165 9003
7923 3923
9755 718
2741 1687
7781 0
9057 6786
7866 1792
6264 1078
4706 37
7079 1022
3862 4752
4557 719
7372 1994
3034 6778
7617 9828
1394 7166
6178 9958
6228 5233
8277 3028
8218 8421
8543 2613
8109 9948
3115 8813
4331 1084
7309 9830
5798 307
2259 7138
7553 3201
9899 5190
6857 1267
3843 438
1812 1463
9374 6473
1168 702
832 5219
